
Log started (V11.0.0) Sat Apr 19 05:07:39 2008

Tried aggregator 1 time.
Reduced MIP has 510 rows, 5001 columns, and 10010 nonzeros.
Presolve time =    0.03 sec.
Clique table members: 500.
MIP emphasis: balance optimality and feasibility.
MIP search method: dynamic search.
Parallel mode: none, using 1 thread.
Root relaxation solution time =    0.16 sec.

        Nodes                                         Cuts/
   Node  Left     Objective  IInf  Best Integer     Best Node    ItCnt     Gap

*     0+    0                        28415.0000      877.2453      577   96.91%
*     0+    0                          902.0000      877.2453      577    2.74%
      0     0      878.0000    18      902.0000     Fract: 10      592    2.66%
*     0+    0                          900.0000      878.0000      592    2.44%
      0     0      878.0000    16      900.0000     Covers: 1      599    2.44%
*     0+    0                          898.0000      878.0000      599    2.23%
      0     0      878.0000    24      898.0000     Covers: 1      611    2.23%
*     0+    0                          897.0000      878.0000      611    2.12%
      0     0      878.0000    22      897.0000     Covers: 1      620    2.12%
*     0+    0                          891.0000      878.0000      620    1.46%
*     0+    0                          890.0000      878.0000      620    1.35%
*     0+    0                          888.0000      878.0000      620    1.13%
      0     2      878.0000    22      888.0000      878.0000      620    1.13%
*    30+   29                          883.0000      878.0000     1565    0.57%
    100    80      880.0000    16      883.0000      878.0000     5551    0.57%
    200   152      881.0000    20      883.0000      878.0000    10297    0.57%
    300   200      882.0000    20      883.0000      878.0000    13924    0.57%
*   320+  152                          882.0000      878.0000    14506    0.45%
    400   222      878.0028    20      882.0000      878.0000    16878    0.45%
    500   289      879.0000    17      882.0000      878.0000    19007    0.45%
*   533+  206                          881.0000      878.0000    20826    0.34%
    600   215      879.0000    19      881.0000      878.0000    22464    0.34%
    700   209      879.0000    22      881.0000      878.0000    25074    0.34%
*   733+  109                          880.0000      878.0000    25720    0.23%
    800   130      879.0000    20      880.0000      878.0000    27280    0.23%
    900   200      878.1151    65      880.0000      878.0000    30445    0.23%
   1000   291      879.0000    24      880.0000      878.0000    32619    0.23%
Elapsed time =  18.89 sec. (tree size =  0.32 MB, solutions = 12)
   1100   374      879.0000    12      880.0000      878.0000    34922    0.23%
   1200   459      879.0000    33      880.0000      878.0000    37902    0.23%
   1300   543      879.0000    20      880.0000      878.0000    39991    0.23%
   1400   623      878.0000    34      880.0000      878.0000    42906    0.23%
   1500   703      879.0000    30      880.0000      878.0000    45910    0.23%
   1600   783      879.0000    18      880.0000      878.0000    49171    0.23%
   1700   878      879.0000    38      880.0000      878.0000    51352    0.23%
   1800   962      879.0000    37      880.0000      878.0000    55608    0.23%
   1900  1045      879.0000    26      880.0000      878.0000    58834    0.23%
   2000  1122    infeasible            880.0000      878.0000    62767    0.23%
Elapsed time =  29.83 sec. (tree size =  1.36 MB, solutions = 12)
   2100  1206    infeasible            880.0000      878.0000    66413    0.23%
   2200  1298      879.0000    24      880.0000      878.0000    69705    0.23%
   2300  1386      879.0000    24      880.0000      878.0000    73382    0.23%
   2400  1469      879.0000    28      880.0000      878.0000    76784    0.23%
   2500  1549      879.0000    22      880.0000      878.0000    81577    0.23%
   2600  1632      879.0000    38      880.0000      878.0000    85361    0.23%
   2700  1708      879.0000    23      880.0000      878.0000    90461    0.23%
   2800  1794      879.0000    36      880.0000      878.0000    93785    0.23%
   2900  1881    infeasible            880.0000      878.0000    96313    0.23%
   3000  1962      879.0000    34      880.0000      878.0000   100610    0.23%
Elapsed time =  44.30 sec. (tree size =  2.38 MB, solutions = 12)
   3100  2051      879.0000    31      880.0000      878.0000   104597    0.23%
   3200  2129      879.0000    26      880.0000      878.0000   110194    0.23%
*  3233+  177                          879.0000      878.0000   111798    0.11%
   3300   230      878.0000    54      879.0000      878.0000   115650    0.11%
   3400   296      878.0000    42      879.0000      878.0000   124317    0.11%
   3500   300      878.0000    45      879.0000      878.0000   146507    0.11%
   3600   364      878.0000    38      879.0000      878.0000   157345    0.11%
   3700   416      878.0000    54      879.0000      878.0000   173254    0.11%
   3800   456      878.0000    42      879.0000      878.0000   190868    0.11%
   3900   536    infeasible            879.0000      878.0000   200531    0.11%
   4000   558      878.0000    76      879.0000      878.0000   223269    0.11%
Elapsed time = 106.89 sec. (tree size =  0.56 MB, solutions = 13)
   4100   612      878.0000    40      879.0000      878.0000   240135    0.11%
   4200   696      878.0000    56      879.0000      878.0000   248458    0.11%
   4300   770      878.0000    42      879.0000      878.0000   257729    0.11%
   4400   850      878.0000    48      879.0000      878.0000   264636    0.11%
   4500   925      878.0000    45      879.0000      878.0000   272892    0.11%
   4600   997      878.0000    44      879.0000      878.0000   282883    0.11%
   4700  1061    infeasible            879.0000      878.0000   295384    0.11%
   4800  1113    infeasible            879.0000      878.0000   308085    0.11%
   4900  1177    infeasible            879.0000      878.0000   320165    0.11%
   5000  1251      878.0000    66      879.0000      878.0000   332640    0.11%
Elapsed time = 191.84 sec. (tree size =  1.22 MB, solutions = 13)
   5100  1297      878.0000    49      879.0000      878.0000   347392    0.11%
   5200  1363      878.0000    52      879.0000      878.0000   360927    0.11%
   5300  1421      878.0000    60      879.0000      878.0000   376458    0.11%
   5400  1503      878.0000    44      879.0000      878.0000   386024    0.11%
   5500  1575      878.0000    70      879.0000      878.0000   397822    0.11%
   5600  1641      878.0000    68      879.0000      878.0000   412776    0.11%
   5700  1703      878.0000    56      879.0000      878.0000   428609    0.11%
   5800  1729    infeasible            879.0000      878.0000   452337    0.11%
   5900  1789      878.0000    58      879.0000      878.0000   469131    0.11%
   6000  1849      878.0000    81      879.0000      878.0000   486872    0.11%
Elapsed time = 339.88 sec. (tree size =  1.81 MB, solutions = 13)
   6100  1891      878.0000    54      879.0000      878.0000   512904    0.11%
   6200  1957      878.0000    81      879.0000      878.0000   528427    0.11%
   6300  2009      878.0000    76      879.0000      878.0000   545130    0.11%
   6400  2065      878.0000    70      879.0000      878.0000   562979    0.11%
   6500  2125    infeasible            879.0000      878.0000   577990    0.11%
   6600  2197      878.0000    54      879.0000      878.0000   592550    0.11%
   6700  2243    infeasible            879.0000      878.0000   613247    0.11%
   6800  2291      878.0000    62      879.0000      878.0000   636124    0.11%
   6900  2341    infeasible            879.0000      878.0000   654175    0.11%
   7000  2393    infeasible            879.0000      878.0000   672754    0.11%
Elapsed time = 549.81 sec. (tree size =  2.37 MB, solutions = 13)
   7100  2424      878.0000    69      879.0000      878.0000   701092    0.11%
   7200  2476      878.0000    74      879.0000      878.0000   722607    0.11%
   7300  2534      878.0000    74      879.0000      878.0000   743396    0.11%
   7400  2570      878.0000    78      879.0000      878.0000   769095    0.11%
   7500  2586    infeasible            879.0000      878.0000   799936    0.11%
   7600  2614    infeasible            879.0000      878.0000   826265    0.11%
   7700  2673      878.0000    82      879.0000      878.0000   845732    0.11%
   7800  2733      878.0000    60      879.0000      878.0000   865586    0.11%
   7900  2785      878.0000    74      879.0000      878.0000   887624    0.11%
   8000  2851      878.0000    63      879.0000      878.0000   906584    0.11%
Elapsed time = 844.86 sec. (tree size =  2.84 MB, solutions = 13)
   8100  2911      878.0000    80      879.0000      878.0000   923393    0.11%
   8200  2942      878.0000    91      879.0000      878.0000   954271    0.11%
   8300  2988      878.0000    65      879.0000      878.0000   977454    0.11%
   8400  3038    infeasible            879.0000      878.0000   997706    0.11%
   8500  3066      878.0000    88      879.0000      878.0000  1026790    0.11%
   8600  3126    infeasible            879.0000      878.0000  1047730    0.11%
   8700  3178      878.0000    72      879.0000      878.0000  1071408    0.11%
   8800  3238      878.0000    64      879.0000      878.0000  1092355    0.11%
   8900  3272      878.0000   108      879.0000      878.0000  1120711    0.11%
   9000  3312      878.0000    90      879.0000      878.0000  1149079    0.11%
Elapsed time = 1173.73 sec. (tree size =  3.34 MB, solutions = 13)
   9100  3368    infeasible            879.0000      878.0000  1168187    0.11%
   9200  3400    infeasible            879.0000      878.0000  1196155    0.11%
   9300  3430    infeasible            879.0000      878.0000  1225412    0.11%
   9400  3470      878.0000    74      879.0000      878.0000  1254396    0.11%
   9500  3512      878.0000    41      879.0000      878.0000  1283326    0.11%
   9600  3562      878.0000    64      879.0000      878.0000  1304135    0.11%
   9700  3610    infeasible            879.0000      878.0000  1329064    0.11%
   9800  3648      878.0000    74      879.0000      878.0000  1356999    0.11%
   9900  3686      878.0000    60      879.0000      878.0000  1388445    0.11%
  10000  3734      878.0000    84      879.0000      878.0000  1414431    0.11%
Elapsed time = 1565.91 sec. (tree size =  3.80 MB, solutions = 13)
  10100  3756    infeasible            879.0000      878.0000  1447451    0.11%
  10200  3820    infeasible            879.0000      878.0000  1465223    0.11%
  10300  3846    infeasible            879.0000      878.0000  1497995    0.11%
  10400  3886      878.0000    70      879.0000      878.0000  1528760    0.11%
  10500  3944      878.0000    78      879.0000      878.0000  1553853    0.11%
  10600  4012      878.0000    88      879.0000      878.0000  1571627    0.11%
  10700  4058      878.0000    92      879.0000      878.0000  1596937    0.11%
  10800  4104      878.0000    72      879.0000      878.0000  1621750    0.11%
  10900  4128    infeasible            879.0000      878.0000  1654468    0.11%
  11000  4194      878.0000   100      879.0000      878.0000  1676882    0.11%
Elapsed time = 1969.19 sec. (tree size =  4.37 MB, solutions = 13)
  11100  4210      878.0000    80      879.0000      878.0000  1715269    0.11%
  11200  4256      878.0000    76      879.0000      878.0000  1741529    0.11%
  11300  4282      878.0000    82      879.0000      878.0000  1773793    0.11%
  11400  4320    infeasible            879.0000      878.0000  1807697    0.11%
  11500  4386      878.0000    73      879.0000      878.0000  1829686    0.11%
  11600  4418      878.0000    62      879.0000      878.0000  1861580    0.11%
  11700  4416    infeasible            879.0000      878.0000  1908016    0.11%
  11800  4436    infeasible            879.0000      878.0000  1942837    0.11%
  11900  4446      878.0000   101      879.0000      878.0000  1983016    0.11%
  12000  4464      878.0000   102      879.0000      878.0000  2020294    0.11%
Elapsed time = 2539.17 sec. (tree size =  4.69 MB, solutions = 13)
  12100  4504    infeasible            879.0000      878.0000  2051499    0.11%
  12200  4546      878.0000    75      879.0000      878.0000  2082385    0.11%
  12300  4616    infeasible            879.0000      878.0000  2102596    0.11%
  12400  4670      878.0000    63      879.0000      878.0000  2126193    0.11%
  12500  4722      878.0000    94      879.0000      878.0000  2148595    0.11%
  12600  4774    infeasible            879.0000      878.0000  2175858    0.11%
  12700  4821      878.0000    70      879.0000      878.0000  2209627    0.11%
  12800  4869    infeasible            879.0000      878.0000  2235332    0.11%
  12900  4907    infeasible            879.0000      878.0000  2270940    0.11%
  13000  4959      878.0000   100      879.0000      878.0000  2298047    0.11%
Elapsed time = 3023.78 sec. (tree size =  5.25 MB, solutions = 13)
  13100  4997      878.0000    92      879.0000      878.0000  2335008    0.11%
  13200  5029      878.0000    66      879.0000      878.0000  2366722    0.11%
  13300  5083      878.0000    76      879.0000      878.0000  2391132    0.11%
  13400  5125      878.0000    76      879.0000      878.0000  2422379    0.11%
  13500  5181    infeasible            879.0000      878.0000  2451979    0.11%
  13600  5205      878.0000    81      879.0000      878.0000  2488646    0.11%
  13700  5253    infeasible            879.0000      878.0000  2519746    0.11%
  13800  5297      878.0000   103      879.0000      878.0000  2551819    0.11%
  13900  5312    infeasible            879.0000      878.0000  2595111    0.11%
  14000  5342      878.0000    95      879.0000      878.0000  2632782    0.11%
Elapsed time = 3631.63 sec. (tree size =  5.70 MB, solutions = 13)
  14100  5338    infeasible            879.0000      878.0000  2680587    0.11%
  14200  5380      878.0000    78      879.0000      878.0000  2712727    0.11%
  14300  5422      878.0000    98      879.0000      878.0000  2741412    0.11%
  14400  5472      878.0000    82      879.0000      878.0000  2768722    0.11%
  14500  5512      878.0000   108      879.0000      878.0000  2800793    0.11%
  14600  5556      878.0000    88      879.0000      878.0000  2830872    0.11%
  14700  5574    infeasible            879.0000      878.0000  2868483    0.11%
  14800  5640      878.0000    66      879.0000      878.0000  2887369    0.11%
  14900  5692    infeasible            879.0000      878.0000  2918342    0.11%
  15000  5732      878.0000    92      879.0000      878.0000  2952212    0.11%
Elapsed time = 4237.98 sec. (tree size =  6.16 MB, solutions = 13)
  15100  5772      878.0000    88      879.0000      878.0000  2985028    0.11%
  15200  5830      878.0000    86      879.0000      878.0000  3008300    0.11%
  15300  5870    infeasible            879.0000      878.0000  3038943    0.11%
  15400  5912    infeasible            879.0000      878.0000  3069120    0.11%
  15500  5974    infeasible            879.0000      878.0000  3090907    0.11%
  15600  5962      878.0000    79      879.0000      878.0000  3143281    0.11%
  15700  6009      878.0000    69      879.0000      878.0000  3167511    0.11%
  15800  6037      878.0000    83      879.0000      878.0000  3203027    0.11%
  15900  6083    infeasible            879.0000      878.0000  3229804    0.11%
  16000  6135    infeasible            879.0000      878.0000  3257778    0.11%
Elapsed time = 4795.55 sec. (tree size =  6.63 MB, solutions = 13)
  16100  6195      878.0000    92      879.0000      878.0000  3283672    0.11%
  16200  6233      878.0000    88      879.0000      878.0000  3315854    0.11%
  16300  6267      878.0000    62      879.0000      878.0000  3354547    0.11%
  16400  6303      878.0000    94      879.0000      878.0000  3387031    0.11%
  16500  6337    infeasible            879.0000      878.0000  3420869    0.11%
  16600  6361      878.0000    73      879.0000      878.0000  3460748    0.11%
  16700  6411      878.0000    81      879.0000      878.0000  3491642    0.11%
  16800  6454      878.0000    72      879.0000      878.0000  3523326    0.11%
  16900  6488      878.0000   104      879.0000      878.0000  3556118    0.11%
  17000  6508      878.0000    89      879.0000      878.0000  3595178    0.11%
Elapsed time = 5418.84 sec. (tree size =  7.07 MB, solutions = 13)
  17100  6542      878.0000    82      879.0000      878.0000  3628620    0.11%
  17200  6558      878.0000    80      879.0000      878.0000  3666898    0.11%
  17300  6596      878.0000    52      879.0000      878.0000  3696257    0.11%
  17400  6638    infeasible            879.0000      878.0000  3722715    0.11%
  17500  6636    infeasible            879.0000      878.0000  3768937    0.11%
  17600  6674      878.0000    77      879.0000      878.0000  3805285    0.11%
  17700  6716      878.0000    75      879.0000      878.0000  3834973    0.11%
  17800  6728      878.0000    94      879.0000      878.0000  3874562    0.11%
  17900  6778      878.0000    97      879.0000      878.0000  3902623    0.11%
  18000  6782      878.0000    76      879.0000      878.0000  3944918    0.11%
Elapsed time = 6042.61 sec. (tree size =  7.39 MB, solutions = 13)
  18100  6808      878.0000    78      879.0000      878.0000  3981820    0.11%
  18200  6812    infeasible            879.0000      878.0000  4029510    0.11%
  18300  6836    infeasible            879.0000      878.0000  4061560    0.11%
  18400  6864    infeasible            879.0000      878.0000  4095305    0.11%
  18500  6884    infeasible            879.0000      878.0000  4132489    0.11%
  18600  6894    infeasible            879.0000      878.0000  4173706    0.11%
  18700  6928      878.0000    80      879.0000      878.0000  4206742    0.11%
  18800  6968      878.0000   110      879.0000      878.0000  4232876    0.11%
  18900  7012      878.0000    74      879.0000      878.0000  4266224    0.11%
  19000  7046      878.0000    82      879.0000      878.0000  4298119    0.11%
Elapsed time = 6698.06 sec. (tree size =  7.71 MB, solutions = 13)
  19100  7108      878.0000    68      879.0000      878.0000  4318426    0.11%
  19200  7160      878.0000    72      879.0000      878.0000  4347712    0.11%
  19300  7186      878.0000    82      879.0000      878.0000  4383088    0.11%
  19400  7228      878.0000    86      879.0000      878.0000  4417775    0.11%
  19500  7246      878.0000    86      879.0000      878.0000  4459067    0.11%
  19600  7284      878.0000    91      879.0000      878.0000  4492370    0.11%
  19700  7348      878.0000    98      879.0000      878.0000  4513584    0.11%
  19800  7396      878.0000    92      879.0000      878.0000  4535461    0.11%

Cover cuts applied:  2460
Mixed integer rounding cuts applied:  7
Gomory fractional cuts applied:  3

Solution pool: 13 solutions saved.

MIP - Time limit exceeded, integer feasible:  Objective = 8.7900000000e+002
Current MIP best bound = 8.7800000000e+002 (gap = 1, 0.11%)
Solution time = 7200.08 sec.  Iterations = 4565645  Nodes = 19879 (7406)


Incumbent solution
Variable Name           Solution Value
Cmax                        879.000000
X_1_7                         1.000000
X_2_2                         1.000000
X_3_8                         1.000000
X_4_9                         1.000000
X_5_1                         1.000000
X_6_5                         1.000000
X_7_7                         1.000000
X_8_1                         1.000000
X_9_4                         1.000000
X_10_8                        1.000000
X_11_2                        1.000000
X_12_6                        1.000000
X_13_10                       1.000000
X_14_10                       1.000000
X_15_5                        1.000000
X_16_2                        1.000000
X_17_9                        1.000000
X_18_5                        1.000000
X_19_6                        1.000000
X_20_2                        1.000000
X_21_10                       1.000000
X_22_1                        1.000000
X_23_1                        1.000000
X_24_4                        1.000000
X_25_2                        1.000000
X_26_3                        1.000000
X_27_7                        1.000000
X_28_3                        1.000000
X_29_7                        1.000000
X_30_1                        1.000000
X_31_7                        1.000000
X_32_5                        1.000000
X_33_10                       1.000000
X_34_6                        1.000000
X_35_7                        1.000000
X_36_6                        1.000000
X_37_10                       1.000000
X_38_10                       1.000000
X_39_1                        1.000000
X_40_9                        1.000000
X_41_4                        1.000000
X_42_7                        1.000000
X_43_3                        1.000000
X_44_3                        1.000000
X_45_9                        1.000000
X_46_1                        1.000000
X_47_10                       1.000000
X_48_7                        1.000000
X_49_8                        1.000000
X_50_4                        1.000000
X_51_7                        1.000000
X_52_6                        1.000000
X_53_4                        1.000000
X_54_10                       1.000000
X_55_9                        1.000000
X_56_1                        1.000000
X_57_7                        1.000000
X_58_3                        1.000000
X_59_10                       1.000000
X_60_6                        1.000000
X_61_9                        1.000000
X_62_5                        1.000000
X_63_5                        1.000000
X_64_8                        1.000000
X_65_10                       1.000000
X_66_9                        1.000000
X_67_8                        1.000000
X_68_2                        1.000000
X_69_9                        1.000000
X_70_4                        1.000000
X_71_1                        1.000000
X_72_9                        1.000000
X_73_2                        1.000000
X_74_3                        1.000000
X_75_1                        1.000000
X_76_3                        1.000000
X_77_2                        1.000000
X_78_5                        1.000000
X_79_1                        1.000000
X_80_3                        1.000000
X_81_1                        1.000000
X_82_8                        1.000000
X_83_8                        1.000000
X_84_8                        1.000000
X_85_5                        1.000000
X_86_5                        1.000000
X_87_9                        1.000000
X_88_5                        1.000000
X_89_9                        1.000000
X_90_1                        1.000000
X_91_4                        1.000000
X_92_6                        1.000000
X_93_10                       1.000000
X_94_3                        1.000000
X_95_8                        1.000000
X_96_4                        1.000000
X_97_5                        1.000000
X_98_7                        1.000000
X_99_9                        1.000000
X_100_10                      1.000000
X_101_4                       1.000000
X_102_5                       1.000000
X_103_1                       1.000000
X_104_8                       1.000000
X_105_4                       1.000000
X_106_4                       1.000000
X_107_3                       1.000000
X_108_7                       1.000000
X_109_9                       1.000000
X_110_3                       1.000000
X_111_9                       1.000000
X_112_7                       1.000000
X_113_4                       1.000000
X_114_10                      1.000000
X_115_7                       1.000000
X_116_10                      1.000000
X_117_6                       1.000000
X_118_10                      1.000000
X_119_9                       1.000000
X_120_3                       1.000000
X_121_7                       1.000000
X_122_8                       1.000000
X_123_1                       1.000000
X_124_3                       1.000000
X_125_1                       1.000000
X_126_1                       1.000000
X_127_2                       1.000000
X_128_1                       1.000000
X_129_2                       1.000000
X_130_4                       1.000000
X_131_6                       1.000000
X_132_4                       1.000000
X_133_2                       1.000000
X_134_10                      1.000000
X_135_2                       1.000000
X_136_9                       1.000000
X_137_2                       1.000000
X_138_9                       1.000000
X_139_2                       1.000000
X_140_2                       1.000000
X_141_5                       1.000000
X_142_7                       1.000000
X_143_5                       1.000000
X_144_10                      1.000000
X_145_4                       1.000000
X_146_8                       1.000000
X_147_2                       1.000000
X_148_4                       1.000000
X_149_10                      1.000000
X_150_2                       1.000000
X_151_1                       1.000000
X_152_9                       1.000000
X_153_7                       1.000000
X_154_2                       1.000000
X_155_9                       1.000000
X_156_1                       1.000000
X_157_9                       1.000000
X_158_8                       1.000000
X_159_9                       1.000000
X_160_10                      1.000000
X_161_2                       1.000000
X_162_1                       1.000000
X_163_1                       1.000000
X_164_9                       1.000000
X_165_2                       1.000000
X_166_8                       1.000000
X_167_6                       1.000000
X_168_10                      1.000000
X_169_6                       1.000000
X_170_8                       1.000000
X_171_4                       1.000000
X_172_8                       1.000000
X_173_7                       1.000000
X_174_7                       1.000000
X_175_4                       1.000000
X_176_3                       1.000000
X_177_3                       1.000000
X_178_9                       1.000000
X_179_3                       1.000000
X_180_8                       1.000000
X_181_4                       1.000000
X_182_8                       1.000000
X_183_4                       1.000000
X_184_4                       1.000000
X_185_6                       1.000000
X_186_5                       1.000000
X_187_4                       1.000000
X_188_5                       1.000000
X_189_10                      1.000000
X_190_4                       1.000000
X_191_7                       1.000000
X_192_1                       1.000000
X_193_8                       1.000000
X_194_5                       1.000000
X_195_5                       1.000000
X_196_10                      1.000000
X_197_1                       1.000000
X_198_7                       1.000000
X_199_10                      1.000000
X_200_6                       1.000000
X_201_3                       1.000000
X_202_4                       1.000000
X_203_8                       1.000000
X_204_5                       1.000000
X_205_3                       1.000000
X_206_8                       1.000000
X_207_2                       1.000000
X_208_5                       1.000000
X_209_8                       1.000000
X_210_1                       1.000000
X_211_5                       1.000000
X_212_1                       1.000000
X_213_10                      1.000000
X_214_6                       1.000000
X_215_7                       1.000000
X_216_6                       1.000000
X_217_1                       1.000000
X_218_2                       1.000000
X_219_7                       1.000000
X_220_4                       1.000000
X_221_7                       1.000000
X_222_7                       1.000000
X_223_1                       1.000000
X_224_6                       1.000000
X_225_9                       1.000000
X_226_7                       1.000000
X_227_7                       1.000000
X_228_9                       1.000000
X_229_3                       1.000000
X_230_7                       1.000000
X_231_5                       1.000000
X_232_6                       1.000000
X_233_3                       1.000000
X_234_5                       1.000000
X_235_2                       1.000000
X_236_9                       1.000000
X_237_4                       1.000000
X_238_5                       1.000000
X_239_3                       1.000000
X_240_7                       1.000000
X_241_8                       1.000000
X_242_9                       1.000000
X_243_2                       1.000000
X_244_10                      1.000000
X_245_8                       1.000000
X_246_10                      1.000000
X_247_3                       1.000000
X_248_10                      1.000000
X_249_10                      1.000000
X_250_8                       1.000000
X_251_5                       1.000000
X_252_5                       1.000000
X_253_1                       1.000000
X_254_7                       1.000000
X_255_2                       1.000000
X_256_5                       1.000000
X_257_4                       1.000000
X_258_6                       1.000000
X_259_9                       1.000000
X_260_6                       1.000000
X_261_6                       1.000000
X_262_9                       1.000000
X_263_3                       1.000000
X_264_7                       1.000000
X_265_8                       1.000000
X_266_4                       1.000000
X_267_2                       1.000000
X_268_8                       1.000000
X_269_4                       1.000000
X_270_9                       1.000000
X_271_8                       1.000000
X_272_6                       1.000000
X_273_5                       1.000000
X_274_4                       1.000000
X_275_2                       1.000000
X_276_4                       1.000000
X_277_4                       1.000000
X_278_10                      1.000000
X_279_1                       1.000000
X_280_3                       1.000000
X_281_2                       1.000000
X_282_6                       1.000000
X_283_1                       1.000000
X_284_3                       1.000000
X_285_6                       1.000000
X_286_6                       1.000000
X_287_6                       1.000000
X_288_1                       1.000000
X_289_4                       1.000000
X_290_4                       1.000000
X_291_5                       1.000000
X_292_9                       1.000000
X_293_2                       1.000000
X_294_4                       1.000000
X_295_3                       1.000000
X_296_1                       1.000000
X_297_2                       1.000000
X_298_3                       1.000000
X_299_3                       1.000000
X_300_8                       1.000000
X_301_1                       1.000000
X_302_9                       1.000000
X_303_2                       1.000000
X_304_9                       1.000000
X_305_10                      1.000000
X_306_7                       1.000000
X_307_6                       1.000000
X_308_8                       1.000000
X_309_6                       1.000000
X_310_5                       1.000000
X_311_4                       1.000000
X_312_8                       1.000000
X_313_5                       1.000000
X_314_3                       1.000000
X_315_8                       1.000000
X_316_9                       1.000000
X_317_6                       1.000000
X_318_7                       1.000000
X_319_1                       1.000000
X_320_5                       1.000000
X_321_4                       1.000000
X_322_5                       1.000000
X_323_1                       1.000000
X_324_7                       1.000000
X_325_10                      1.000000
X_326_6                       1.000000
X_327_4                       1.000000
X_328_7                       1.000000
X_329_7                       1.000000
X_330_2                       1.000000
X_331_6                       1.000000
X_332_1                       1.000000
X_333_1                       1.000000
X_334_9                       1.000000
X_335_5                       1.000000
X_336_10                      1.000000
X_337_7                       1.000000
X_338_6                       1.000000
X_339_3                       1.000000
X_340_2                       1.000000
X_341_4                       1.000000
X_342_7                       1.000000
X_343_1                       1.000000
X_344_7                       1.000000
X_345_4                       1.000000
X_346_10                      1.000000
X_347_3                       1.000000
X_348_6                       1.000000
X_349_10                      1.000000
X_350_3                       1.000000
X_351_5                       1.000000
X_352_10                      1.000000
X_353_9                       1.000000
X_354_9                       1.000000
X_355_5                       1.000000
X_356_9                       1.000000
X_357_3                       1.000000
X_358_10                      1.000000
X_359_7                       1.000000
X_360_6                       1.000000
X_361_3                       1.000000
X_362_2                       1.000000
X_363_9                       1.000000
X_364_1                       1.000000
X_365_8                       1.000000
X_366_1                       1.000000
X_367_9                       1.000000
X_368_4                       1.000000
X_369_6                       1.000000
X_370_2                       1.000000
X_371_5                       1.000000
X_372_8                       1.000000
X_373_8                       1.000000
X_374_1                       1.000000
X_375_3                       1.000000
X_376_2                       1.000000
X_377_2                       1.000000
X_378_8                       1.000000
X_379_4                       1.000000
X_380_3                       1.000000
X_381_8                       1.000000
X_382_8                       1.000000
X_383_9                       1.000000
X_384_1                       1.000000
X_385_1                       1.000000
X_386_3                       1.000000
X_387_9                       1.000000
X_388_3                       1.000000
X_389_10                      1.000000
X_390_6                       1.000000
X_391_5                       1.000000
X_392_2                       1.000000
X_393_2                       1.000000
X_394_2                       1.000000
X_395_4                       1.000000
X_396_2                       1.000000
X_397_6                       1.000000
X_398_1                       1.000000
X_399_8                       1.000000
X_400_9                       1.000000
X_401_4                       1.000000
X_402_2                       1.000000
X_403_5                       1.000000
X_404_5                       1.000000
X_405_4                       1.000000
X_406_7                       1.000000
X_407_9                       1.000000
X_408_5                       1.000000
X_409_2                       1.000000
X_410_10                      1.000000
X_411_9                       1.000000
X_412_1                       1.000000
X_413_3                       1.000000
X_414_8                       1.000000
X_415_3                       1.000000
X_416_7                       1.000000
X_417_4                       1.000000
X_418_7                       1.000000
X_419_6                       1.000000
X_420_4                       1.000000
X_421_8                       1.000000
X_422_5                       1.000000
X_423_8                       1.000000
X_424_10                      1.000000
X_425_4                       1.000000
X_426_3                       1.000000
X_427_5                       1.000000
X_428_9                       1.000000
X_429_1                       1.000000
X_430_10                      1.000000
X_431_5                       1.000000
X_432_1                       1.000000
X_433_6                       1.000000
X_434_2                       1.000000
X_435_9                       1.000000
X_436_5                       1.000000
X_437_1                       1.000000
X_438_9                       1.000000
X_439_8                       1.000000
X_440_6                       1.000000
X_441_8                       1.000000
X_442_5                       1.000000
X_443_7                       1.000000
X_444_7                       1.000000
X_445_9                       1.000000
X_446_1                       1.000000
X_447_9                       1.000000
X_448_4                       1.000000
X_449_2                       1.000000
X_450_2                       1.000000
X_451_9                       1.000000
X_452_2                       1.000000
X_453_6                       1.000000
X_454_4                       1.000000
X_455_4                       1.000000
X_456_3                       1.000000
X_457_1                       1.000000
X_458_3                       1.000000
X_459_5                       1.000000
X_460_3                       1.000000
X_461_5                       1.000000
X_462_6                       1.000000
X_463_3                       1.000000
X_464_8                       1.000000
X_465_7                       1.000000
X_466_3                       1.000000
X_467_7                       1.000000
X_468_8                       1.000000
X_469_10                      1.000000
X_470_4                       1.000000
X_471_2                       1.000000
X_472_5                       1.000000
X_473_2                       1.000000
X_474_10                      1.000000
X_475_10                      1.000000
X_476_8                       1.000000
X_477_6                       1.000000
X_478_7                       1.000000
X_479_5                       1.000000
X_480_8                       1.000000
X_481_6                       1.000000
X_482_6                       1.000000
X_483_9                       1.000000
X_484_3                       1.000000
X_485_4                       1.000000
X_486_2                       1.000000
X_487_6                       1.000000
X_488_8                       1.000000
X_489_1                       1.000000
X_490_6                       1.000000
X_491_8                       1.000000
X_492_10                      1.000000
X_493_2                       1.000000
X_494_8                       1.000000
X_495_7                       1.000000
X_496_10                      1.000000
X_497_9                       1.000000
X_498_1                       1.000000
X_499_8                       1.000000
X_500_7                       1.000000
All other variables in the range 1-5001 are 0.
